c t wmc
c file mc2022_track2_013.cnf
p cnf 100 255
-42 51 0
-14 51 0
-35 51 0
-34 51 0
-51 42 14 35 34 0
-22 52 0
-47 52 0
-12 52 0
-24 52 0
-52 22 47 12 24 0
-38 53 0
-14 53 0
-7 53 0
-19 53 0
-53 38 14 7 19 0
-15 54 0
-10 54 0
-23 54 0
-2 54 0
-54 15 10 23 2 0
-23 55 0
-2 55 0
-38 55 0
-4 55 0
-55 23 2 38 4 0
-30 56 0
-50 56 0
-46 56 0
-35 56 0
-56 30 50 46 35 0
-22 57 0
-17 57 0
-7 57 0
-24 57 0
-57 22 17 7 24 0
-8 58 0
-22 58 0
-43 58 0
-44 58 0
-58 8 22 43 44 0
-4 59 0
-42 59 0
-5 59 0
-17 59 0
-59 4 42 5 17 0
-17 60 0
-44 60 0
-31 60 0
-30 60 0
-60 17 44 31 30 0
-1 61 0
-49 61 0
-46 61 0
-12 61 0
-61 1 49 46 12 0
-23 62 0
-48 62 0
-34 62 0
-26 62 0
-62 23 48 34 26 0
-35 63 0
-37 63 0
-7 63 0
-34 63 0
-63 35 37 7 34 0
-34 64 0
-43 64 0
-7 64 0
-3 64 0
-64 34 43 7 3 0
-50 65 0
-31 65 0
-10 65 0
-21 65 0
-65 50 31 10 21 0
-40 66 0
-5 66 0
-16 66 0
-46 66 0
-66 40 5 16 46 0
-46 67 0
-23 67 0
-14 67 0
-12 67 0
-67 46 23 14 12 0
-16 68 0
-44 68 0
-42 68 0
-18 68 0
-68 16 44 42 18 0
-44 69 0
-37 69 0
-30 69 0
-18 69 0
-69 44 37 30 18 0
-34 70 0
-13 70 0
-45 70 0
-20 70 0
-70 34 13 45 20 0
-2 71 0
-5 71 0
-35 71 0
-46 71 0
-71 2 5 35 46 0
-12 72 0
-37 72 0
-47 72 0
-44 72 0
-72 12 37 47 44 0
-49 73 0
-18 73 0
-33 73 0
-3 73 0
-73 49 18 33 3 0
-35 74 0
-30 74 0
-50 74 0
-7 74 0
-74 35 30 50 7 0
-44 75 0
-11 75 0
-25 75 0
-39 75 0
-75 44 11 25 39 0
-4 76 0
-42 76 0
-35 76 0
-41 76 0
-76 4 42 35 41 0
-21 77 0
-2 77 0
-26 77 0
-36 77 0
-77 21 2 26 36 0
-47 78 0
-48 78 0
-39 78 0
-50 78 0
-78 47 48 39 50 0
-2 79 0
-25 79 0
-47 79 0
-15 79 0
-79 2 25 47 15 0
-14 80 0
-44 80 0
-8 80 0
-12 80 0
-80 14 44 8 12 0
-13 81 0
-43 81 0
-16 81 0
-47 81 0
-81 13 43 16 47 0
-22 82 0
-15 82 0
-6 82 0
-17 82 0
-82 22 15 6 17 0
-25 83 0
-30 83 0
-6 83 0
-29 83 0
-83 25 30 6 29 0
-23 84 0
-40 84 0
-21 84 0
-46 84 0
-84 23 40 21 46 0
-43 85 0
-48 85 0
-31 85 0
-41 85 0
-85 43 48 31 41 0
-45 86 0
-19 86 0
-40 86 0
-49 86 0
-86 45 19 40 49 0
-43 87 0
-37 87 0
-13 87 0
-6 87 0
-87 43 37 13 6 0
-32 88 0
-21 88 0
-19 88 0
-44 88 0
-88 32 21 19 44 0
-13 89 0
-34 89 0
-40 89 0
-36 89 0
-89 13 34 40 36 0
-50 90 0
-45 90 0
-3 90 0
-27 90 0
-90 50 45 3 27 0
-26 91 0
-8 91 0
-7 91 0
-1 91 0
-91 26 8 7 1 0
-49 92 0
-27 92 0
-46 92 0
-41 92 0
-92 49 27 46 41 0
-26 93 0
-32 93 0
-23 93 0
-46 93 0
-93 26 32 23 46 0
-23 94 0
-21 94 0
-40 94 0
-11 94 0
-94 23 21 40 11 0
-33 95 0
-48 95 0
-42 95 0
-5 95 0
-95 33 48 42 5 0
-18 96 0
-35 96 0
-19 96 0
-4 96 0
-96 18 35 19 4 0
-27 97 0
-5 97 0
-3 97 0
-23 97 0
-97 27 5 3 23 0
-9 98 0
-29 98 0
-49 98 0
-16 98 0
-98 9 29 49 16 0
-35 99 0
-1 99 0
-16 99 0
-13 99 0
-99 35 1 16 13 0
-46 100 0
-6 100 0
-39 100 0
-23 100 0
-100 46 6 39 23 0
65 0
-96 0
-51 0
-87 0
56 0
c p weight 1 0.5 0
c p weight -1 0.5 0
c p weight 2 0.5 0
c p weight -2 0.5 0
c p weight 3 0.5 0
c p weight -3 0.5 0
c p weight 4 0.01858472 0
c p weight -4 0.98141528 0
c p weight 5 0.5 0
c p weight -5 0.5 0
c p weight 6 0.00127918 0
c p weight -6 0.99872082 0
c p weight 7 0.5 0
c p weight -7 0.5 0
c p weight 8 0.5 0
c p weight -8 0.5 0
c p weight 9 0.5 0
c p weight -9 0.5 0
c p weight 10 0.00724814 0
c p weight -10 0.99275186 0
c p weight 11 0.5 0
c p weight -11 0.5 0
c p weight 12 0.5 0
c p weight -12 0.5 0
c p weight 13 0.00022625 0
c p weight -13 0.99977375 0
c p weight 14 0.00455776 0
c p weight -14 0.99544224 0
c p weight 15 0.5 0
c p weight -15 0.5 0
c p weight 16 0.5 0
c p weight -16 0.5 0
c p weight 17 0.5 0
c p weight -17 0.5 0
c p weight 18 0.01382628 0
c p weight -18 0.98617372 0
c p weight 19 0.00392233 0
c p weight -19 0.99607767 0
c p weight 20 0.5 0
c p weight -20 0.5 0
c p weight 21 0.00632578 0
c p weight -21 0.99367422 0
c p weight 22 0.5 0
c p weight -22 0.5 0
c p weight 23 0.5 0
c p weight -23 0.5 0
c p weight 24 0.5 0
c p weight -24 0.5 0
c p weight 25 0.5 0
c p weight -25 0.5 0
c p weight 26 0.5 0
c p weight -26 0.5 0
c p weight 27 0.5 0
c p weight -27 0.5 0
c p weight 28 0.5 0
c p weight -28 0.5 0
c p weight 29 0.5 0
c p weight -29 0.5 0
c p weight 30 0.00646436 0
c p weight -30 0.99353564 0
c p weight 31 0.98023192 0
c p weight -31 0.01976808 0
c p weight 32 0.5 0
c p weight -32 0.5 0
c p weight 33 0.5 0
c p weight -33 0.5 0
c p weight 34 0.00501052 0
c p weight -34 0.99498948 0
c p weight 35 0.01028903 0
c p weight -35 0.98971097 0
c p weight 36 0.5 0
c p weight -36 0.5 0
c p weight 37 0.00627757 0
c p weight -37 0.99372243 0
c p weight 38 0.5 0
c p weight -38 0.5 0
c p weight 39 0.5 0
c p weight -39 0.5 0
c p weight 40 0.5 0
c p weight -40 0.5 0
c p weight 41 0.5 0
c p weight -41 0.5 0
c p weight 42 0.00352684 0
c p weight -42 0.99647316 0
c p weight 43 0.01739771 0
c p weight -43 0.98260229 0
c p weight 44 0.5 0
c p weight -44 0.5 0
c p weight 45 0.5 0
c p weight -45 0.5 0
c p weight 46 0.99047801 0
c p weight -46 0.00952199 0
c p weight 47 0.5 0
c p weight -47 0.5 0
c p weight 48 0.5 0
c p weight -48 0.5 0
c p weight 49 0.5 0
c p weight -49 0.5 0
c p weight 50 0.00230388 0
c p weight -50 0.99769612 0
c p weight 51 0.00145577 0
c p weight -51 0.99854423 0
c p weight 52 0.99953936 0
c p weight -52 0.00046064 0
c p weight 53 0.98969455 0
c p weight -53 0.01030545 0
c p weight 54 0.98564132 0
c p weight -54 0.01435868 0
c p weight 55 0.99776677 0
c p weight -55 0.00223323 0
c p weight 56 0.99293748 0
c p weight -56 0.00706252 0
c p weight 57 0.99180362 0
c p weight -57 0.00819638 0
c p weight 58 0.9897047 0
c p weight -58 0.0102953 0
c p weight 59 0.98531972 0
c p weight -59 0.01468028 0
c p weight 60 0.99852395 0
c p weight -60 0.00147605 0
c p weight 61 0.99420717 0
c p weight -61 0.00579283 0
c p weight 62 0.98631721 0
c p weight -62 0.01368279 0
c p weight 63 0.99298336 0
c p weight -63 0.00701664 0
c p weight 64 0.98072551 0
c p weight -64 0.01927449 0
c p weight 65 0.98849044 0
c p weight -65 0.01150956 0
c p weight 66 0.99209289 0
c p weight -66 0.00790711 0
c p weight 67 0.98911685 0
c p weight -67 0.01088315 0
c p weight 68 0.98130759 0
c p weight -68 0.01869241 0
c p weight 69 0.99835354 0
c p weight -69 0.00164646 0
c p weight 70 0.98904393 0
c p weight -70 0.01095607 0
c p weight 71 0.99214428 0
c p weight -71 0.00785572 0
c p weight 72 0.99987004 0
c p weight -72 0.00012996 0
c p weight 73 0.98918283 0
c p weight -73 0.01081717 0
c p weight 74 0.98168268 0
c p weight -74 0.01831732 0
c p weight 75 0.98913788 0
c p weight -75 0.01086212 0
c p weight 76 0.99017026 0
c p weight -76 0.00982974 0
c p weight 77 0.9977321 0
c p weight -77 0.0022679 0
c p weight 78 0.9878255 0
c p weight -78 0.0121745 0
c p weight 79 0.99788061 0
c p weight -79 0.00211939 0
c p weight 80 0.98045162 0
c p weight -80 0.01954838 0
c p weight 81 0.98389323 0
c p weight -81 0.01610677 0
c p weight 82 0.99726584 0
c p weight -82 0.00273416 0
c p weight 83 0.98323426 0
c p weight -83 0.01676574 0
c p weight 84 0.99894818 0
c p weight -84 0.00105182 0
c p weight 85 0.9983567 0
c p weight -85 0.0016433 0
c p weight 86 0.99087569 0
c p weight -86 0.00912431 0
c p weight 87 0.00588663 0
c p weight -87 0.99411337 0
c p weight 88 0.98910181 0
c p weight -88 0.01089819 0
c p weight 89 0.98327339 0
c p weight -89 0.01672661 0
c p weight 90 0.99017668 0
c p weight -90 0.00982332 0
c p weight 91 0.99587187 0
c p weight -91 0.00412813 0
c p weight 92 0.99128858 0
c p weight -92 0.00871142 0
c p weight 93 0.98591203 0
c p weight -93 0.01408797 0
c p weight 94 0.9958748 0
c p weight -94 0.0041252 0
c p weight 95 0.99441563 0
c p weight -95 0.00558437 0
c p weight 96 0.00783255 0
c p weight -96 0.99216745 0
c p weight 97 0.99782486 0
c p weight -97 0.00217514 0
c p weight 98 0.98107463 0
c p weight -98 0.01892537 0
c p weight 99 0.99954412 0
c p weight -99 0.00045588 0
c p weight 100 0.98752603 0
c p weight -100 0.01247397 0
